&CONTROL
    calculation = 'scf'
    pseudo_dir  = '/users/rkarkee/pbe_pseudo'
        outdir       = './'
        prefix = 'WSe'
        tprnfor = .true.
    tstress = .true.
/

&SYSTEM
    ecutwfc     =  80,
    ibrav       = 0,
    nat         = 54,
    ntyp        = 2,
    vdw_corr    = 'Grimme-D2'
/

&ELECTRONS
    conv_thr         =  1.00000e-10
    electron_maxstep = 200
    mixing_beta      =  0.5
    diagonalization  = "david"

/

K_POINTS {automatic}
2 2 2 1 1 1
 

!    ibrav = 0, nat = 54, ntyp = 2
CELL_PARAMETERS bohr
   18.5058447054664690    0.0000000000000000    0.0000000000000000
   -9.2529223443995416   16.0265316384376746    0.0000000000000000
    0.0000000000000000    0.0000000000000000   23.6458474921339317
ATOMIC_SPECIES
  W  183.84000   W.upf
 Se   78.96000   Se.upf
ATOMIC_POSITIONS crystal
  W   0.1111111143333333  0.2222222290000000  0.7500000000000001
  W   0.4444444476666667  0.2222222290000000  0.7500000000000001
  W   0.7777777809999999  0.2222222290000000  0.7500000000000001
  W   0.1111111143333333  0.5555555623333333  0.7500000000000001
  W   0.4444444476666667  0.5555555623333333  0.7500000000000001
  W   0.7777777809999999  0.5555555623333333  0.7500000000000001
  W   0.1111111143333333  0.8888888956666666  0.7500000000000001
  W   0.4444444476666666  0.8888888956666666  0.7500000000000001
  W   0.7777777809999999  0.8888888956666666  0.7500000000000001
  W   0.2222222090000000  0.1111111043333333  0.2500000000000000
  W   0.5555555423333334  0.1111111043333333  0.2500000000000000
  W   0.8888888756666666  0.1111111043333333  0.2500000000000000
  W   0.2222222090000000  0.4444444376666666  0.2500000000000000
  W   0.5555555423333334  0.4444444376666666  0.2500000000000000
  W   0.8888888756666666  0.4444444376666666  0.2500000000000000
  W   0.2222222090000000  0.7777777709999999  0.2500000000000000
  W   0.5555555423333334  0.7777777709999999  0.2500000000000000
  W   0.8888888756666666  0.7777777709999999  0.2500000000000000
 Se   0.1117771920067031  0.2222222290000000  0.1162289964733698
 Se   0.4444444476666667  0.2222222290000000  0.1155629188000000
 Se   0.7777777809999999  0.2222222290000000  0.1155629188000000
 Se   0.1111111143333333  0.5555555623333333  0.1155629188000000
 Se   0.4444444476666667  0.5555555623333333  0.1155629188000000
 Se   0.7777777809999999  0.5555555623333333  0.1155629188000000
 Se   0.1111111143333333  0.8888888956666666  0.1155629188000000
 Se   0.4444444476666666  0.8888888956666666  0.1155629188000000
 Se   0.7777777809999999  0.8888888956666666  0.1155629188000000
 Se   0.2222222090000000  0.1111111043333333  0.8844370882000001
 Se   0.5555555423333334  0.1111111043333333  0.8844370882000001
 Se   0.8888888756666666  0.1111111043333333  0.8844370882000001
 Se   0.2222222090000000  0.4444444376666666  0.8844370882000001
 Se   0.5555555423333334  0.4444444376666666  0.8844370882000001
 Se   0.8888888756666666  0.4444444376666666  0.8844370882000001
 Se   0.2222222090000000  0.7777777709999999  0.8844370882000001
 Se   0.5555555423333334  0.7777777709999999  0.8844370882000001
 Se   0.8888888756666666  0.7777777709999999  0.8844370882000001
 Se   0.2222222090000000  0.1111111043333333  0.6155629118000000
 Se   0.5555555423333334  0.1111111043333333  0.6155629118000000
 Se   0.8888888756666666  0.1111111043333333  0.6155629118000000
 Se   0.2222222090000000  0.4444444376666666  0.6155629118000000
 Se   0.5555555423333334  0.4444444376666666  0.6155629118000000
 Se   0.8888888756666666  0.4444444376666666  0.6155629118000000
 Se   0.2222222090000000  0.7777777709999999  0.6155629118000000
 Se   0.5555555423333334  0.7777777709999999  0.6155629118000000
 Se   0.8888888756666666  0.7777777709999999  0.6155629118000000
 Se   0.1111111143333333  0.2222222290000000  0.3844370882000001
 Se   0.4444444476666667  0.2222222290000000  0.3844370882000001
 Se   0.7777777809999999  0.2222222290000000  0.3844370882000001
 Se   0.1111111143333333  0.5555555623333333  0.3844370882000001
 Se   0.4444444476666667  0.5555555623333333  0.3844370882000001
 Se   0.7777777809999999  0.5555555623333333  0.3844370882000001
 Se   0.1111111143333333  0.8888888956666666  0.3844370882000001
 Se   0.4444444476666666  0.8888888956666666  0.3844370882000001
 Se   0.7777777809999999  0.8888888956666666  0.3844370882000001