!    ibrav = 0, nat = 54, ntyp = 2
CELL_PARAMETERS bohr
   18.8835150055780296    0.0000000000000000    0.0000000000000000
   -9.4417574942852482   16.3536037126915055    0.0000000000000000
    0.0000000000000000    0.0000000000000000   24.1284158082999305
ATOMIC_SPECIES
  W  183.84000   W.upf
 Se   78.96000   Se.upf
ATOMIC_POSITIONS crystal
  W   0.1117638704532357  0.2222222290000000  0.7506527561199023
  W   0.4444444476666667  0.2222222290000000  0.7500000000000000
  W   0.7777777809999999  0.2222222290000000  0.7500000000000000
  W   0.1111111143333333  0.5555555623333333  0.7500000000000000
  W   0.4444444476666667  0.5555555623333333  0.7500000000000000
  W   0.7777777809999999  0.5555555623333333  0.7500000000000000
  W   0.1111111143333334  0.8888888956666667  0.7500000000000000
  W   0.4444444476666667  0.8888888956666667  0.7500000000000000
  W   0.7777777809999999  0.8888888956666667  0.7500000000000000
  W   0.2222222090000000  0.1111111043333333  0.2500000000000000
  W   0.5555555423333334  0.1111111043333333  0.2500000000000000
  W   0.8888888756666667  0.1111111043333333  0.2500000000000000
  W   0.2222222090000000  0.4444444376666666  0.2500000000000000
  W   0.5555555423333334  0.4444444376666666  0.2500000000000000
  W   0.8888888756666665  0.4444444376666666  0.2500000000000000
  W   0.2222222090000000  0.7777777709999999  0.2500000000000000
  W   0.5555555423333334  0.7777777709999999  0.2500000000000000
  W   0.8888888756666666  0.7777777709999999  0.2500000000000000
 Se   0.1111111143333333  0.2222222290000000  0.1196301299000000
 Se   0.4444444476666667  0.2222222290000000  0.1196301299000000
 Se   0.7777777809999999  0.2222222290000000  0.1196301299000000
 Se   0.1111111143333333  0.5555555623333333  0.1196301299000000
 Se   0.4444444476666667  0.5555555623333333  0.1196301299000000
 Se   0.7777777809999999  0.5555555623333333  0.1196301299000000
 Se   0.1111111143333334  0.8888888956666667  0.1196301299000000
 Se   0.4444444476666667  0.8888888956666667  0.1196301299000000
 Se   0.7777777809999999  0.8888888956666667  0.1196301299000000
 Se   0.2222222090000000  0.1111111043333333  0.8803698771000000
 Se   0.5555555423333334  0.1111111043333333  0.8803698771000000
 Se   0.8888888756666667  0.1111111043333333  0.8803698771000000
 Se   0.2222222090000000  0.4444444376666666  0.8803698771000000
 Se   0.5555555423333334  0.4444444376666666  0.8803698771000000
 Se   0.8888888756666665  0.4444444376666666  0.8803698771000000
 Se   0.2222222090000000  0.7777777709999999  0.8803698771000000
 Se   0.5555555423333334  0.7777777709999999  0.8803698771000000
 Se   0.8888888756666666  0.7777777709999999  0.8803698771000000
 Se   0.2222222090000000  0.1111111043333333  0.6196301229000000
 Se   0.5555555423333334  0.1111111043333333  0.6196301229000000
 Se   0.8888888756666667  0.1111111043333333  0.6196301229000000
 Se   0.2222222090000000  0.4444444376666666  0.6196301229000000
 Se   0.5555555423333334  0.4444444376666666  0.6196301229000000
 Se   0.8888888756666665  0.4444444376666666  0.6196301229000000
 Se   0.2222222090000000  0.7777777709999999  0.6196301229000000
 Se   0.5555555423333334  0.7777777709999999  0.6196301229000000
 Se   0.8888888756666666  0.7777777709999999  0.6196301229000000
 Se   0.1111111143333333  0.2222222290000000  0.3803698771000000
 Se   0.4444444476666667  0.2222222290000000  0.3803698771000000
 Se   0.7777777809999999  0.2222222290000000  0.3803698771000000
 Se   0.1111111143333333  0.5555555623333333  0.3803698771000000
 Se   0.4444444476666667  0.5555555623333333  0.3803698771000000
 Se   0.7777777809999999  0.5555555623333333  0.3803698771000000
 Se   0.1111111143333334  0.8888888956666667  0.3803698771000000
 Se   0.4444444476666667  0.8888888956666667  0.3803698771000000
 Se   0.7777777809999999  0.8888888956666667  0.3803698771000000