!    ibrav = 0, nat = 54, ntyp = 2
CELL_PARAMETERS bohr
   19.0723501556338100    0.0000000000000000    0.0000000000000000
   -9.5361750692280989   16.5171397498184227    0.0000000000000000
    0.0000000000000000    0.0000000000000000   24.3696999663829317
ATOMIC_SPECIES
  W  183.84000   W.upf
 Se   78.96000   Se.upf
ATOMIC_POSITIONS crystal
  W   0.1111111143333333  0.2222222290000000  0.7499999999999999
  W   0.4444444476666667  0.2222222290000000  0.7499999999999999
  W   0.7777777809999999  0.2222222290000000  0.7499999999999999
  W   0.1111111143333333  0.5555555623333331  0.7499999999999999
  W   0.4444444476666666  0.5555555623333331  0.7499999999999999
  W   0.7777777809999999  0.5555555623333331  0.7499999999999999
  W   0.1111111143333333  0.8888888956666667  0.7499999999999999
  W   0.4444444476666667  0.8888888956666667  0.7499999999999999
  W   0.7777777809999999  0.8888888956666667  0.7499999999999999
  W   0.2222222090000000  0.1111111043333333  0.2500000000000000
  W   0.5555555423333334  0.1111111043333333  0.2500000000000000
  W   0.8888888756666666  0.1111111043333333  0.2500000000000000
  W   0.2222222090000000  0.4444444376666666  0.2500000000000000
  W   0.5555555423333334  0.4444444376666666  0.2500000000000000
  W   0.8888888756666666  0.4444444376666666  0.2500000000000000
  W   0.2222222090000000  0.7777777709999999  0.2500000000000000
  W   0.5555555423333334  0.7777777709999999  0.2500000000000000
  W   0.8888888756666666  0.7777777709999999  0.2500000000000000
 Se   0.1104648211453112  0.2222222290000000  0.1209432557119779
 Se   0.4444444476666667  0.2222222290000000  0.1215895489000000
 Se   0.7777777809999999  0.2222222290000000  0.1215895489000000
 Se   0.1111111143333333  0.5555555623333331  0.1215895489000000
 Se   0.4444444476666666  0.5555555623333331  0.1215895489000000
 Se   0.7777777809999999  0.5555555623333331  0.1215895489000000
 Se   0.1111111143333333  0.8888888956666667  0.1215895489000000
 Se   0.4444444476666667  0.8888888956666667  0.1215895489000000
 Se   0.7777777809999999  0.8888888956666667  0.1215895489000000
 Se   0.2222222090000000  0.1111111043333333  0.8784104581000000
 Se   0.5555555423333334  0.1111111043333333  0.8784104581000000
 Se   0.8888888756666666  0.1111111043333333  0.8784104581000000
 Se   0.2222222090000000  0.4444444376666666  0.8784104581000000
 Se   0.5555555423333334  0.4444444376666666  0.8784104581000000
 Se   0.8888888756666666  0.4444444376666666  0.8784104581000000
 Se   0.2222222090000000  0.7777777709999999  0.8784104581000000
 Se   0.5555555423333334  0.7777777709999999  0.8784104581000000
 Se   0.8888888756666666  0.7777777709999999  0.8784104581000000
 Se   0.2222222090000000  0.1111111043333333  0.6215895419000000
 Se   0.5555555423333334  0.1111111043333333  0.6215895419000000
 Se   0.8888888756666666  0.1111111043333333  0.6215895419000000
 Se   0.2222222090000000  0.4444444376666666  0.6215895419000000
 Se   0.5555555423333334  0.4444444376666666  0.6215895419000000
 Se   0.8888888756666666  0.4444444376666666  0.6215895419000000
 Se   0.2222222090000000  0.7777777709999999  0.6215895419000000
 Se   0.5555555423333334  0.7777777709999999  0.6215895419000000
 Se   0.8888888756666666  0.7777777709999999  0.6215895419000000
 Se   0.1111111143333333  0.2222222290000000  0.3784104581000000
 Se   0.4444444476666667  0.2222222290000000  0.3784104581000000
 Se   0.7777777809999999  0.2222222290000000  0.3784104581000000
 Se   0.1111111143333333  0.5555555623333331  0.3784104581000000
 Se   0.4444444476666666  0.5555555623333331  0.3784104581000000
 Se   0.7777777809999999  0.5555555623333331  0.3784104581000000
 Se   0.1111111143333333  0.8888888956666667  0.3784104581000000
 Se   0.4444444476666667  0.8888888956666667  0.3784104581000000
 Se   0.7777777809999999  0.8888888956666667  0.3784104581000000