!    ibrav = 0, nat = 54, ntyp = 2
CELL_PARAMETERS bohr
   18.6946798555222458    0.0000000000000000    0.0000000000000000
   -9.3473399193423958   16.1900676755645918    0.0000000000000000
    0.0000000000000000    0.0000000000000000   23.8871316502169329
ATOMIC_SPECIES
  W  183.84000   W.upf
 Se   78.96000   Se.upf
ATOMIC_POSITIONS crystal
  W   0.1111111143333333  0.2222222290000000  0.7500000000000000
  W   0.4444444476666667  0.2222222290000000  0.7500000000000000
  W   0.7777777809999999  0.2222222290000000  0.7500000000000000
  W   0.1111111143333333  0.5555555623333333  0.7500000000000000
  W   0.4444444476666667  0.5555555623333333  0.7500000000000000
  W   0.7777777809999999  0.5555555623333333  0.7500000000000000
  W   0.1111111143333333  0.8888888956666668  0.7500000000000000
  W   0.4444444476666667  0.8888888956666668  0.7500000000000000
  W   0.7777777809999999  0.8888888956666668  0.7500000000000000
  W   0.2222222090000000  0.1111111043333333  0.2500000000000000
  W   0.5555555423333334  0.1111111043333333  0.2500000000000000
  W   0.8888888756666666  0.1111111043333333  0.2500000000000000
  W   0.2222222090000001  0.4444444376666667  0.2500000000000000
  W   0.5555555423333335  0.4444444376666667  0.2500000000000000
  W   0.8888888756666665  0.4444444376666667  0.2500000000000000
  W   0.2222222090000000  0.7777777709999999  0.2500000000000000
  W   0.5555555423333334  0.7777777709999999  0.2500000000000000
  W   0.8888888756666666  0.7777777709999999  0.2500000000000000
 Se   0.1104517647172703  0.2222222290000000  0.1169463984839370
 Se   0.4444444476666667  0.2222222290000000  0.1176057481000000
 Se   0.7777777809999999  0.2222222290000000  0.1176057481000000
 Se   0.1111111143333333  0.5555555623333333  0.1176057481000000
 Se   0.4444444476666667  0.5555555623333333  0.1176057481000000
 Se   0.7777777809999999  0.5555555623333333  0.1176057481000000
 Se   0.1111111143333333  0.8888888956666668  0.1176057481000000
 Se   0.4444444476666667  0.8888888956666668  0.1176057481000000
 Se   0.7777777809999999  0.8888888956666668  0.1176057481000000
 Se   0.2222222090000000  0.1111111043333333  0.8823942589000000
 Se   0.5555555423333334  0.1111111043333333  0.8823942589000000
 Se   0.8888888756666666  0.1111111043333333  0.8823942589000000
 Se   0.2222222090000001  0.4444444376666667  0.8823942589000000
 Se   0.5555555423333335  0.4444444376666667  0.8823942589000000
 Se   0.8888888756666665  0.4444444376666667  0.8823942589000000
 Se   0.2222222090000000  0.7777777709999999  0.8823942589000000
 Se   0.5555555423333334  0.7777777709999999  0.8823942589000000
 Se   0.8888888756666666  0.7777777709999999  0.8823942589000000
 Se   0.2222222090000000  0.1111111043333333  0.6176057411000000
 Se   0.5555555423333334  0.1111111043333333  0.6176057411000000
 Se   0.8888888756666666  0.1111111043333333  0.6176057411000000
 Se   0.2222222090000001  0.4444444376666667  0.6176057411000000
 Se   0.5555555423333335  0.4444444376666667  0.6176057411000000
 Se   0.8888888756666665  0.4444444376666667  0.6176057411000000
 Se   0.2222222090000000  0.7777777709999999  0.6176057411000000
 Se   0.5555555423333334  0.7777777709999999  0.6176057411000000
 Se   0.8888888756666666  0.7777777709999999  0.6176057411000000
 Se   0.1111111143333333  0.2222222290000000  0.3823942589000000
 Se   0.4444444476666667  0.2222222290000000  0.3823942589000000
 Se   0.7777777809999999  0.2222222290000000  0.3823942589000000
 Se   0.1111111143333333  0.5555555623333333  0.3823942589000000
 Se   0.4444444476666667  0.5555555623333333  0.3823942589000000
 Se   0.7777777809999999  0.5555555623333333  0.3823942589000000
 Se   0.1111111143333333  0.8888888956666668  0.3823942589000000
 Se   0.4444444476666667  0.8888888956666668  0.3823942589000000
 Se   0.7777777809999999  0.8888888956666668  0.3823942589000000